c Generated map
c Size: 15 * 15, weights in range: 1 to 10, walls: True, with ratio 0.1
c dim 2 of 4
c
p sp 225 338
c graph contains 225 nodes and 338 arcs
c
a 1 16 8
a 16 1 8
a 1 2 3
a 2 1 3
a 2 17 3
a 17 2 3
a 4 19 5
a 19 4 5
a 4 5 3
a 5 4 3
a 5 20 8
a 20 5 8
a 5 6 6
a 6 5 6
a 6 21 8
a 21 6 8
a 6 7 2
a 7 6 2
a 7 22 6
a 22 7 6
a 7 8 8
a 8 7 8
a 8 23 10
a 23 8 10
a 8 9 1
a 9 8 1
a 9 24 10
a 24 9 10
a 9 10 5
a 10 9 5
a 10 25 6
a 25 10 6
a 10 11 8
a 11 10 8
a 11 26 4
a 26 11 4
a 11 12 2
a 12 11 2
a 12 27 5
a 27 12 5
a 12 13 6
a 13 12 6
a 13 28 7
a 28 13 7
a 13 14 8
a 14 13 8
a 14 29 9
a 29 14 9
a 14 15 6
a 15 14 6
a 15 30 4
a 30 15 4
a 16 31 6
a 31 16 6
a 16 17 7
a 17 16 7
a 17 32 5
a 32 17 5
a 17 18 4
a 18 17 4
a 18 33 5
a 33 18 5
a 18 19 1
a 19 18 1
a 19 34 6
a 34 19 6
a 19 20 3
a 20 19 3
a 20 35 10
a 35 20 10
a 20 21 3
a 21 20 3
a 21 36 6
a 36 21 6
a 21 22 8
a 22 21 8
a 22 37 6
a 37 22 6
a 22 23 10
a 23 22 10
a 23 38 2
a 38 23 2
a 23 24 10
a 24 23 10
a 24 25 10
a 25 24 10
a 25 26 10
a 26 25 10
a 26 41 1
a 41 26 1
a 26 27 3
a 27 26 3
a 27 42 1
a 42 27 1
a 27 28 2
a 28 27 2
a 28 43 7
a 43 28 7
a 28 29 6
a 29 28 6
a 29 44 2
a 44 29 2
a 29 30 2
a 30 29 2
a 30 45 3
a 45 30 3
a 31 46 5
a 46 31 5
a 31 32 10
a 32 31 10
a 32 47 10
a 47 32 10
a 32 33 8
a 33 32 8
a 33 48 8
a 48 33 8
a 33 34 10
a 34 33 10
a 34 49 6
a 49 34 6
a 34 35 7
a 35 34 7
a 35 36 9
a 36 35 9
a 36 51 7
a 51 36 7
a 36 37 2
a 37 36 2
a 37 52 8
a 52 37 8
a 37 38 7
a 38 37 7
a 38 53 8
a 53 38 8
a 41 56 6
a 56 41 6
a 41 42 8
a 42 41 8
a 42 57 10
a 57 42 10
a 42 43 6
a 43 42 6
a 43 44 10
a 44 43 10
a 44 59 4
a 59 44 4
a 44 45 5
a 45 44 5
a 45 60 3
a 60 45 3
a 46 61 8
a 61 46 8
a 46 47 7
a 47 46 7
a 47 62 10
a 62 47 10
a 47 48 8
a 48 47 8
a 48 63 3
a 63 48 3
a 48 49 4
a 49 48 4
a 49 64 4
a 64 49 4
a 51 52 2
a 52 51 2
a 52 67 8
a 67 52 8
a 52 53 4
a 53 52 4
a 53 68 8
a 68 53 8
a 53 54 5
a 54 53 5
a 54 69 1
a 69 54 1
a 54 55 4
a 55 54 4
a 55 70 4
a 70 55 4
a 55 56 6
a 56 55 6
a 56 71 8
a 71 56 8
a 56 57 7
a 57 56 7
a 57 72 5
a 72 57 5
a 59 74 9
a 74 59 9
a 59 60 4
a 60 59 4
a 60 75 9
a 75 60 9
a 61 76 9
a 76 61 9
a 61 62 1
a 62 61 1
a 62 77 8
a 77 62 8
a 62 63 8
a 63 62 8
a 63 78 8
a 78 63 8
a 63 64 8
a 64 63 8
a 64 65 9
a 65 64 9
a 65 80 4
a 80 65 4
a 67 68 2
a 68 67 2
a 68 83 9
a 83 68 9
a 68 69 4
a 69 68 4
a 69 84 7
a 84 69 7
a 69 70 5
a 70 69 5
a 70 85 2
a 85 70 2
a 70 71 6
a 71 70 6
a 71 72 2
a 72 71 2
a 72 87 8
a 87 72 8
a 72 73 1
a 73 72 1
a 73 88 9
a 88 73 9
a 73 74 9
a 74 73 9
a 74 89 2
a 89 74 2
a 74 75 9
a 75 74 9
a 75 90 6
a 90 75 6
a 76 91 8
a 91 76 8
a 76 77 1
a 77 76 1
a 77 92 6
a 92 77 6
a 77 78 6
a 78 77 6
a 78 93 4
a 93 78 4
a 80 95 4
a 95 80 4
a 80 81 7
a 81 80 7
a 81 96 5
a 96 81 5
a 83 98 7
a 98 83 7
a 83 84 1
a 84 83 1
a 84 99 10
a 99 84 10
a 84 85 4
a 85 84 4
a 85 100 5
a 100 85 5
a 87 88 5
a 88 87 5
a 88 103 1
a 103 88 1
a 88 89 10
a 89 88 10
a 89 90 7
a 90 89 7
a 90 105 9
a 105 90 9
a 91 106 6
a 106 91 6
a 91 92 4
a 92 91 4
a 92 107 9
a 107 92 9
a 92 93 2
a 93 92 2
a 93 94 10
a 94 93 10
a 94 109 3
a 109 94 3
a 94 95 3
a 95 94 3
a 95 110 3
a 110 95 3
a 95 96 10
a 96 95 10
a 96 111 1
a 111 96 1
a 96 97 2
a 97 96 2
a 97 112 7
a 112 97 7
a 97 98 1
a 98 97 1
a 98 113 2
a 113 98 2
a 98 99 4
a 99 98 4
a 99 114 2
a 114 99 2
a 99 100 4
a 100 99 4
a 100 115 2
a 115 100 2
a 105 120 5
a 120 105 5
a 106 121 3
a 121 106 3
a 106 107 8
a 107 106 8
a 107 122 3
a 122 107 3
a 109 124 4
a 124 109 4
a 109 110 9
a 110 109 9
a 110 125 3
a 125 110 3
a 110 111 10
a 111 110 10
a 111 126 5
a 126 111 5
a 111 112 1
a 112 111 1
a 112 127 6
a 127 112 6
a 112 113 7
a 113 112 7
a 113 114 6
a 114 113 6
a 114 129 2
a 129 114 2
a 114 115 4
a 115 114 4
a 115 130 5
a 130 115 5
a 115 116 2
a 116 115 2
a 116 131 7
a 131 116 7
a 116 117 3
a 117 116 3
a 117 132 3
a 132 117 3
a 119 134 10
a 134 119 10
a 119 120 3
a 120 119 3
a 120 135 1
a 135 120 1
a 121 136 4
a 136 121 4
a 121 122 4
a 122 121 4
a 122 137 8
a 137 122 8
a 122 123 5
a 123 122 5
a 123 138 2
a 138 123 2
a 123 124 1
a 124 123 1
a 124 139 4
a 139 124 4
a 124 125 4
a 125 124 4
a 125 140 3
a 140 125 3
a 125 126 8
a 126 125 8
a 126 141 6
a 141 126 6
a 126 127 2
a 127 126 2
a 129 144 1
a 144 129 1
a 129 130 10
a 130 129 10
a 130 145 1
a 145 130 1
a 130 131 8
a 131 130 8
a 131 146 2
a 146 131 2
a 131 132 7
a 132 131 7
a 132 147 4
a 147 132 4
a 132 133 3
a 133 132 3
a 133 148 5
a 148 133 5
a 133 134 6
a 134 133 6
a 134 149 1
a 149 134 1
a 134 135 4
a 135 134 4
a 135 150 3
a 150 135 3
a 136 151 4
a 151 136 4
a 136 137 5
a 137 136 5
a 137 152 4
a 152 137 4
a 137 138 4
a 138 137 4
a 138 153 1
a 153 138 1
a 138 139 10
a 139 138 10
a 139 154 3
a 154 139 3
a 139 140 6
a 140 139 6
a 140 155 4
a 155 140 4
a 140 141 10
a 141 140 10
a 141 156 2
a 156 141 2
a 143 158 6
a 158 143 6
a 143 144 8
a 144 143 8
a 144 145 4
a 145 144 4
a 145 160 3
a 160 145 3
a 145 146 8
a 146 145 8
a 146 147 1
a 147 146 1
a 147 162 1
a 162 147 1
a 147 148 7
a 148 147 7
a 148 163 5
a 163 148 5
a 148 149 10
a 149 148 10
a 149 164 3
a 164 149 3
a 149 150 1
a 150 149 1
a 150 165 6
a 165 150 6
a 151 166 7
a 166 151 7
a 151 152 5
a 152 151 5
a 152 167 9
a 167 152 9
a 152 153 4
a 153 152 4
a 153 168 8
a 168 153 8
a 153 154 1
a 154 153 1
a 154 169 5
a 169 154 5
a 154 155 1
a 155 154 1
a 155 170 3
a 170 155 3
a 155 156 4
a 156 155 4
a 156 171 9
a 171 156 9
a 156 157 9
a 157 156 9
a 157 172 4
a 172 157 4
a 157 158 1
a 158 157 1
a 160 175 2
a 175 160 2
a 162 177 4
a 177 162 4
a 162 163 5
a 163 162 5
a 163 178 9
a 178 163 9
a 163 164 5
a 164 163 5
a 164 179 10
a 179 164 10
a 164 165 8
a 165 164 8
a 165 180 8
a 180 165 8
a 166 181 8
a 181 166 8
a 166 167 2
a 167 166 2
a 167 182 5
a 182 167 5
a 167 168 2
a 168 167 2
a 168 183 5
a 183 168 5
a 168 169 4
a 169 168 4
a 169 184 8
a 184 169 8
a 169 170 5
a 170 169 5
a 170 185 1
a 185 170 1
a 170 171 8
a 171 170 8
a 171 186 7
a 186 171 7
a 171 172 2
a 172 171 2
a 172 187 10
a 187 172 10
a 174 189 10
a 189 174 10
a 174 175 1
a 175 174 1
a 175 190 8
a 190 175 8
a 175 176 4
a 176 175 4
a 176 191 10
a 191 176 10
a 176 177 10
a 177 176 10
a 177 192 7
a 192 177 7
a 177 178 6
a 178 177 6
a 178 193 7
a 193 178 7
a 178 179 3
a 179 178 3
a 179 194 10
a 194 179 10
a 179 180 6
a 180 179 6
a 180 195 6
a 195 180 6
a 181 196 9
a 196 181 9
a 181 182 5
a 182 181 5
a 182 197 3
a 197 182 3
a 182 183 1
a 183 182 1
a 183 198 10
a 198 183 10
a 183 184 9
a 184 183 9
a 184 199 4
a 199 184 4
a 184 185 6
a 185 184 6
a 185 200 2
a 200 185 2
a 185 186 7
a 186 185 7
a 186 201 9
a 201 186 9
a 186 187 9
a 187 186 9
a 187 202 7
a 202 187 7
a 187 188 3
a 188 187 3
a 188 203 9
a 203 188 9
a 188 189 9
a 189 188 9
a 189 204 10
a 204 189 10
a 189 190 9
a 190 189 9
a 190 191 7
a 191 190 7
a 191 206 2
a 206 191 2
a 191 192 6
a 192 191 6
a 192 207 2
a 207 192 2
a 192 193 9
a 193 192 9
a 193 208 10
a 208 193 10
a 193 194 9
a 194 193 9
a 194 209 10
a 209 194 10
a 194 195 5
a 195 194 5
a 195 210 9
a 210 195 9
a 196 211 10
a 211 196 10
a 196 197 3
a 197 196 3
a 197 212 3
a 212 197 3
a 197 198 8
a 198 197 8
a 198 213 5
a 213 198 5
a 198 199 3
a 199 198 3
a 199 200 6
a 200 199 6
a 200 215 3
a 215 200 3
a 200 201 1
a 201 200 1
a 201 216 5
a 216 201 5
a 201 202 7
a 202 201 7
a 202 217 8
a 217 202 8
a 202 203 9
a 203 202 9
a 203 204 2
a 204 203 2
a 204 219 7
a 219 204 7
a 206 221 3
a 221 206 3
a 206 207 2
a 207 206 2
a 207 222 8
a 222 207 8
a 207 208 3
a 208 207 3
a 208 223 5
a 223 208 5
a 208 209 8
a 209 208 8
a 209 224 10
a 224 209 10
a 209 210 3
a 210 209 3
a 210 225 5
a 225 210 5
a 211 212 1
a 212 211 1
a 212 213 4
a 213 212 4
a 215 216 8
a 216 215 8
a 216 217 5
a 217 216 5
a 219 220 10
a 220 219 10
a 220 221 8
a 221 220 8
a 221 222 1
a 222 221 1
a 222 223 2
a 223 222 2
a 223 224 8
a 224 223 8
a 224 225 7
a 225 224 7
